nbGenes = 10;
preference = [[0 28 21 23 70 50 59 88 68 30 ]
[72 0 42 47 19 96 16 90 44 61 ]
[79 58 0 28 83 95 74 36 48 83 ]
[77 53 72 0 67 53 11 7 18 80 ]
[30 81 17 33 0 30 71 98 22 65 ]
[50 4 5 47 70 0 4 4 36 92 ]
[41 84 26 89 29 96 0 9 33 87 ]
[12 10 64 93 2 96 91 0 81 96 ]
[32 56 52 82 78 64 67 19 0 74 ]
[70 39 17 20 35 8 13 4 26 0 ]
];
